20
28 20 40 40 4 5 16 11 46 44 46 24 25 34 48 2 41 23 30 
11 33 36 17 5 35 33 1 26 23 3 46 38 44 25 17 34 50 
5 4 43 36 18 9 50 45 50 47 49 10 29 34 11 1 39 
20 35 14 46 32 18 16 44 36 15 11 44 14 16 22 7 
16 24 50 25 48 18 50 45 17 34 48 17 50 14 40 
8 2 9 40 45 25 34 30 14 45 49 29 35 20 
10 25 45 34 25 16 26 24 10 43 7 33 18 
27 32 6 41 40 8 50 3 3 50 37 7 
13 5 30 16 14 24 40 19 34 14 35 
35 12 20 1 19 2 19 20 8 50 
10 48 8 10 10 9 12 17 47 
42 48 13 6 48 13 20 41 
22 34 50 6 46 44 7 
39 46 1 9 3 11 
25 33 3 22 37 
37 36 8 28 
33 21 8 
4 8 
28 

